NAME : berlin52-C-5-0-a.9430.tour
COMMENT : Length = 9430
COMMENT : Found by LKH-3 [Keld Helsgaun] Tue Jul 30 13:14:05 2024
TYPE : TOUR
DIMENSION : 52
TOUR_SECTION
1
5
6
12
51
33
24
48
38
37
40
39
34
35
36
49
32
22
31
18
17
21
42
7
2
30
23
20
50
29
16
44
46
25
28
27
26
47
13
14
52
11
4
15
43
10
9
8
41
19
45
3
-1
EOF
